c description: Random 2-CNF over 15 variables and 15 clauses
c generator: CNFgen (0.9.0)
c copyright: (C) 2012-2020 Massimo Lauria <massimo.lauria@uniroma1.it>
c url: https://massimolauria.net/cnfgen
c
p cnf 15 15
13 -15 0
-6 -14 0
-7 -12 0
-2 -5 0
-9 -15 0
-6 -15 0
10 13 0
-3 14 0
5 11 0
4 -6 0
5 -11 0
-6 -11 0
3 -6 0
-3 -11 0
5 10 0